/*********************************************
 * OPL 12.2 Data
 * Author: mireia.roca
 * Creation Date: 04/02/16
*********************************************/
Id=8011;
c=2;
n=20;
N={1,2,3,4,5,6,7,8,9,10,11,12,13,14,15,16,17,18,19,20};
D={21,22};
Q=100;
CJ=[{1,2},{1,2},{2},{1},{2},{1},{1},{1,2},{1},{1},{1},{2},{1,2},{1},{2},{2},{2},{2},{1},{2}];
d=[
[7,15],[13,13],[0,12],[15,0],[0,13],[7,0],[9,0],[16,9],[15,0],[16,0],[15,0],[0,12],[10,11],[8,0],[0,11],[0,11],[0,11],[0,16],[8,0],[0,19]];
m=[4,4];
K=[{1,2,3,4},{5,6,7,8}];
KT={1,2,3,4,5,6,7,8};
cv=50;
cost = #[
<1,2>:19.42,
<1,3>:65.95,
<1,4>:60.54,
<1,5>:27.66,
<1,6>:57.25,
<1,7>:28.64,
<1,8>:43.66,
<1,9>:57.01,
<1,10>:60.41,
<1,11>:57.01,
<1,12>:38.91,
<1,13>:21.40,
<1,14>:63.60,
<1,15>:52.17,
<1,16>:59.03,
<1,17>:28.65,
<1,18>:62.27,
<1,19>:37.22,
<1,20>:41.77,
<1,21>:74.69,
<1,22>:74.69,
<2,1>:19.42,
<2,3>:73.35,
<2,4>:43.66,
<2,5>:8.60,
<2,6>:68.66,
<2,7>:47.89,
<2,8>:30.02,
<2,9>:61.29,
<2,10>:73.55,
<2,11>:76.06,
<2,12>:40.80,
<2,13>:40.80,
<2,14>:82.28,
<2,15>:48.26,
<2,16>:50.00,
<2,17>:14.14,
<2,18>:45.54,
<2,19>:43.10,
<2,20>:22.67,
<2,21>:93.94,
<2,22>:58.52,
<3,1>:65.95,
<3,2>:73.35,
<3,4>:81.50,
<3,5>:75.27,
<3,6>:17.03,
<3,7>:60.01,
<3,8>:65.03,
<3,9>:15.13,
<3,10>:24.04,
<3,11>:64.07,
<3,12>:33.96,
<3,13>:65.00,
<3,14>:61.98,
<3,15>:39.81,
<3,16>:54.41,
<3,17>:66.48,
<3,18>:81.74,
<3,19>:101.91,
<3,20>:82.38,
<3,21>:77.88,
<3,22>:86.40,
<4,1>:60.54,
<4,2>:43.66,
<4,3>:81.50,
<4,5>:35.44,
<4,6>:86.02,
<4,7>:85.70,
<4,8>:19.42,
<4,9>:66.37,
<4,10>:93.64,
<4,11>:111.29,
<4,12>:50.92,
<4,13>:80.80,
<4,14>:115.60,
<4,15>:42.01,
<4,16>:29.83,
<4,17>:31.91,
<4,18>:2.00,
<4,19>:84.85,
<4,20>:24.00,
<4,21>:129.73,
<4,22>:15.13,
<5,1>:27.66,
<5,2>:8.60,
<5,3>:75.27,
<5,4>:35.44,
<5,6>:72.44,
<5,7>:55.76,
<5,8>:23.77,
<5,9>:62.17,
<5,10>:78.03,
<5,11>:83.65,
<5,12>:41.63,
<5,13>:49.04,
<5,14>:89.55,
<5,15>:45.97,
<5,16>:45.19,
<5,17>:9.90,
<5,18>:37.36,
<5,19>:50.04,
<5,20>:14.14,
<5,21>:101.71,
<5,22>:50.45,
<6,1>:57.25,
<6,2>:68.66,
<6,3>:17.03,
<6,4>:86.02,
<6,5>:72.44,
<6,7>:45.49,
<6,8>:67.68,
<6,9>:24.84,
<6,10>:8.49,
<6,11>:47.04,
<6,12>:35.17,
<6,13>:51.74,
<6,14>:45.12,
<6,15>:47.17,
<6,16>:62.43,
<6,17>:65.01,
<6,18>:86.65,
<6,19>:90.91,
<6,20>:82.02,
<6,21>:61.13,
<6,22>:93.47,
<7,1>:28.64,
<7,2>:47.89,
<7,3>:60.01,
<7,4>:85.70,
<7,5>:55.76,
<7,6>:45.49,
<7,8>:67.01,
<7,9>:57.71,
<7,10>:44.55,
<7,11>:28.46,
<7,12>:47.85,
<7,13>:9.06,
<7,14>:35.51,
<7,15>:64.76,
<7,16>:76.32,
<7,17>:54.49,
<7,18>:87.21,
<7,19>:49.24,
<7,20>:69.63,
<7,21>:46.07,
<7,22>:98.60,
<8,1>:43.66,
<8,2>:30.02,
<8,3>:65.03,
<8,4>:19.42,
<8,5>:23.77,
<8,6>:67.68,
<8,7>:67.01,
<8,9>:50.16,
<8,10>:75.00,
<8,11>:92.02,
<8,12>:32.56,
<8,13>:62.77,
<8,14>:96.21,
<8,15>:27.86,
<8,16>:22.20,
<8,17>:16.03,
<8,18>:20.62,
<8,19>:73.11,
<8,20>:20.62,
<8,21>:110.45,
<8,22>:31.62,
<9,1>:57.01,
<9,2>:61.29,
<9,3>:15.13,
<9,4>:66.37,
<9,5>:62.17,
<9,6>:24.84,
<9,7>:57.71,
<9,8>:50.16,
<9,10>:33.30,
<9,11>:68.41,
<9,12>:20.59,
<9,13>:60.73,
<9,14>:68.15,
<9,15>:24.74,
<9,16>:39.56,
<9,17>:52.92,
<9,18>:66.61,
<9,19>:94.05,
<9,20>:68.15,
<9,21>:84.31,
<9,22>:71.47,
<10,1>:60.41,
<10,2>:73.55,
<10,3>:24.04,
<10,4>:93.64,
<10,5>:78.03,
<10,6>:8.49,
<10,7>:44.55,
<10,8>:75.00,
<10,9>:33.30,
<10,11>:41.19,
<10,12>:42.72,
<10,13>:51.86,
<10,14>:38.21,
<10,15>:55.47,
<10,16>:70.72,
<10,17>:71.18,
<10,18>:94.34,
<10,19>:92.09,
<10,20>:88.36,
<10,21>:53.94,
<10,22>:101.53,
<11,1>:57.01,
<11,2>:76.06,
<11,3>:64.07,
<11,4>:111.29,
<11,5>:83.65,
<11,6>:47.04,
<11,7>:28.46,
<11,8>:92.02,
<11,9>:68.41,
<11,10>:41.19,
<11,12>:66.57,
<11,13>:36.88,
<11,14>:8.54,
<11,15>:83.35,
<11,16>:97.08,
<11,17>:81.27,
<11,18>:112.61,
<11,19>:72.84,
<11,20>:97.25,
<11,21>:18.44,
<11,22>:123.04,
<12,1>:38.91,
<12,2>:40.80,
<12,3>:33.96,
<12,4>:50.92,
<12,5>:41.63,
<12,6>:35.17,
<12,7>:47.85,
<12,8>:32.56,
<12,9>:20.59,
<12,10>:42.72,
<12,11>:66.57,
<12,13>:48.00,
<12,14>:68.88,
<12,15>:17.09,
<12,16>:30.61,
<12,17>:32.57,
<12,18>:51.62,
<12,19>:76.06,
<12,20>:48.51,
<12,21>:84.40,
<12,22>:59.36,
<13,1>:21.40,
<13,2>:40.80,
<13,3>:65.00,
<13,4>:80.80,
<13,5>:49.04,
<13,6>:51.74,
<13,7>:9.06,
<13,8>:62.77,
<13,9>:60.73,
<13,10>:51.86,
<13,11>:36.88,
<13,12>:48.00,
<13,14>:44.28,
<13,15>:64.28,
<13,16>:74.46,
<13,17>:49.04,
<13,18>:82.42,
<13,19>:40.71,
<13,20>:63.13,
<13,21>:53.85,
<13,22>:94.34,
<14,1>:63.60,
<14,2>:82.28,
<14,3>:61.98,
<14,4>:115.60,
<14,5>:89.55,
<14,6>:45.12,
<14,7>:35.51,
<14,8>:96.21,
<14,9>:68.15,
<14,10>:38.21,
<14,11>:8.54,
<14,12>:68.88,
<14,13>:44.28,
<14,15>:85.21,
<14,16>:99.49,
<14,17>:86.45,
<14,18>:116.82,
<14,19>:81.22,
<14,20>:102.86,
<14,21>:16.16,
<14,22>:126.73,
<15,1>:52.17,
<15,2>:48.26,
<15,3>:39.81,
<15,4>:42.01,
<15,5>:45.97,
<15,6>:47.17,
<15,7>:64.76,
<15,8>:27.86,
<15,9>:24.74,
<15,10>:55.47,
<15,11>:83.35,
<15,12>:17.09,
<15,13>:64.28,
<15,14>:85.21,
<15,16>:15.26,
<15,17>:36.07,
<15,18>:42.11,
<15,19>:88.26,
<15,20>:47.89,
<15,21>:100.96,
<15,22>:46.82,
<16,1>:59.03,
<16,2>:50.00,
<16,3>:54.41,
<16,4>:29.83,
<16,5>:45.19,
<16,6>:62.43,
<16,7>:76.32,
<16,8>:22.20,
<16,9>:39.56,
<16,10>:70.72,
<16,11>:97.08,
<16,12>:30.61,
<16,13>:74.46,
<16,14>:99.49,
<16,15>:15.26,
<16,17>:36.06,
<16,18>:29.43,
<16,19>:92.57,
<16,20>:42.45,
<16,21>:115.00,
<16,22>:32.02,
<17,1>:28.65,
<17,2>:14.14,
<17,3>:66.48,
<17,4>:31.91,
<17,5>:9.90,
<17,6>:65.01,
<17,7>:54.49,
<17,8>:16.03,
<17,9>:52.92,
<17,10>:71.18,
<17,11>:81.27,
<17,12>:32.57,
<17,13>:49.04,
<17,14>:86.45,
<17,15>:36.07,
<17,16>:36.06,
<17,18>:33.62,
<17,19>:57.22,
<17,20>:17.26,
<17,21>:99.62,
<17,22>:46.10,
<18,1>:62.27,
<18,2>:45.54,
<18,3>:81.74,
<18,4>:2.00,
<18,5>:37.36,
<18,6>:86.65,
<18,7>:87.21,
<18,8>:20.62,
<18,9>:66.61,
<18,10>:94.34,
<18,11>:112.61,
<18,12>:51.62,
<18,13>:82.42,
<18,14>:116.82,
<18,15>:42.11,
<18,16>:29.43,
<18,17>:33.62,
<18,19>:86.83,
<18,20>:26.00,
<18,21>:131.05,
<18,22>:13.15,
<19,1>:37.22,
<19,2>:43.10,
<19,3>:101.91,
<19,4>:84.85,
<19,5>:50.04,
<19,6>:90.91,
<19,7>:49.24,
<19,8>:73.11,
<19,9>:94.05,
<19,10>:92.09,
<19,11>:72.84,
<19,12>:76.06,
<19,13>:40.71,
<19,14>:81.22,
<19,15>:88.26,
<19,16>:92.57,
<19,17>:57.22,
<19,18>:86.83,
<19,20>:61.19,
<19,21>:86.01,
<19,22>:99.98,
<20,1>:41.77,
<20,2>:22.67,
<20,3>:82.38,
<20,4>:24.00,
<20,5>:14.14,
<20,6>:82.02,
<20,7>:69.63,
<20,8>:20.62,
<20,9>:68.15,
<20,10>:88.36,
<20,11>:97.25,
<20,12>:48.51,
<20,13>:63.13,
<20,14>:102.86,
<20,15>:47.89,
<20,16>:42.45,
<20,17>:17.26,
<20,18>:26.00,
<20,19>:61.19,
<20,21>:115.43,
<20,22>:39.05,
<21,1>:74.69,
<21,2>:93.94,
<21,3>:77.88,
<21,4>:129.73,
<21,5>:101.71,
<21,6>:61.13,
<21,7>:46.07,
<21,8>:110.45,
<21,9>:84.31,
<21,10>:53.94,
<21,11>:18.44,
<21,12>:84.40,
<21,13>:53.85,
<21,14>:16.16,
<21,15>:100.96,
<21,16>:115.00,
<21,17>:99.62,
<21,18>:131.05,
<21,19>:86.01,
<21,20>:115.43,
<22,1>:74.69,
<22,2>:58.52,
<22,3>:86.40,
<22,4>:15.13,
<22,5>:50.45,
<22,6>:93.47,
<22,7>:98.60,
<22,8>:31.62,
<22,9>:71.47,
<22,10>:101.53,
<22,11>:123.04,
<22,12>:59.36,
<22,13>:94.34,
<22,14>:126.73,
<22,15>:46.82,
<22,16>:32.02,
<22,17>:46.10,
<22,18>:13.15,
<22,19>:99.98,
<22,20>:39.05,
]#;


/*********************************************
 * Author: Zimmermann, Julia. Carvalheira, Rafael.
 * Creation Date: 30/01/25
*********************************************/

SCCVRPSPD

p = [
5 11
14 12
0 16
15 0
0 12
16 0
13 0
10 12
12 0
12 0
7 0
0 16
12 10
12 0
0 15
0 17
0 11
0 11
11 0
0 10
]

SCCVRPSPDM-M

m2m[1, 21, 1] = 7
m2m[2, 21, 2] = 13
m2m[3, 21, 2] = 12
m2m[4, 2, 1] = 11
m2m[4, 21, 1] = 4
m2m[5, 21, 2] = 13
m2m[6, 21, 1] = 7
m2m[7, 2, 1] = 9
m2m[8, 21, 1] = 16
m2m[9, 21, 1] = 15
m2m[10, 2, 1] = 16
m2m[11, 2, 1] = 15
m2m[12, 1, 2] = 2
m2m[12, 8, 2] = 2
m2m[12, 13, 2] = 6
m2m[12, 21, 2] = 2
m2m[13, 21, 1] = 10
m2m[14, 21, 1] = 8
m2m[15, 8, 2] = 6
m2m[15, 21, 2] = 5
m2m[16, 1, 2] = 7
m2m[16, 21, 2] = 4
m2m[17, 13, 2] = 11
m2m[18, 21, 2] = 16
m2m[19, 21, 1] = 8
m2m[20, 21, 2] = 19
m2m[21, 1, 1] = 5
m2m[21, 2, 2] = 12
m2m[21, 3, 2] = 16
m2m[21, 5, 2] = 12
m2m[21, 6, 1] = 16
m2m[21, 8, 1] = 10
m2m[21, 9, 1] = 12
m2m[21, 13, 1] = 12
m2m[21, 14, 1] = 12
m2m[21, 18, 2] = 11
m2m[21, 19, 1] = 11
m2m[21, 20, 2] = 10
